; SWAP2 SWAP1 SWAP2 SSTORE SWAP1 POP => SWAP1 SWAP3 POP SSTORE
(set-option :produce-proofs true)
; 
(set-info :status unknown)
(declare-fun storage_t ((_ BitVec 256) (_ BitVec 256) (_ BitVec 256) (_ BitVec 256) (_ BitVec 256) Int (_ BitVec 256)) (_ BitVec 256))
(declare-fun storage_s ((_ BitVec 256) (_ BitVec 256) (_ BitVec 256) (_ BitVec 256) (_ BitVec 256) Int (_ BitVec 256)) (_ BitVec 256))
(declare-fun exc_halt_t (Int) Bool)
(declare-fun exc_halt_s (Int) Bool)
(declare-fun stack_t ((_ BitVec 256) (_ BitVec 256) (_ BitVec 256) (_ BitVec 256) (_ BitVec 256) Int (_ BitVec 6)) (_ BitVec 256))
(declare-fun stack_s ((_ BitVec 256) (_ BitVec 256) (_ BitVec 256) (_ BitVec 256) (_ BitVec 256) Int (_ BitVec 6)) (_ BitVec 256))
(declare-fun sc_t (Int) (_ BitVec 6))
(declare-fun sc_s (Int) (_ BitVec 6))
(declare-fun used_gas_t ((_ BitVec 256) (_ BitVec 256) (_ BitVec 256) (_ BitVec 256) (_ BitVec 256) Int) Int)
(declare-fun used_gas_s ((_ BitVec 256) (_ BitVec 256) (_ BitVec 256) (_ BitVec 256) (_ BitVec 256) Int) Int)
(assert
 (exists ((x_0 (_ BitVec 256)) (x_1 (_ BitVec 256)) (x_2 (_ BitVec 256)) (x_3 (_ BitVec 256)) (x_SSTORE_0 (_ BitVec 256)) )(let (($x1312 (forall ((w (_ BitVec 256)) )(let ((?x9658 (storage_t x_0 x_1 x_2 x_3 x_SSTORE_0 4 w)))
 (let ((?x1641 (storage_s x_0 x_1 x_2 x_3 x_SSTORE_0 6 w)))
 (= ?x1641 ?x9658))))
 ))
 (let (($x7854 (exc_halt_t 4)))
 (let (($x772 (exc_halt_s 6)))
 (let (($x4404 (= $x772 $x7854)))
 (let (($x2146 (forall ((n (_ BitVec 6)) )(let ((?x3272 (stack_t x_0 x_1 x_2 x_3 x_SSTORE_0 4 n)))
 (let ((?x10020 (stack_s x_0 x_1 x_2 x_3 x_SSTORE_0 6 n)))
 (let (($x11728 (= ?x10020 ?x3272)))
 (let ((?x4818 (sc_t 4)))
 (let (($x2764 (bvsle ?x4818 n)))
 (or $x2764 $x11728)))))))
 ))
 (let ((?x4818 (sc_t 4)))
 (let ((?x926 (sc_s 6)))
 (let (($x7899 (= ?x926 ?x4818)))
 (let ((?x10388 (used_gas_t x_0 x_1 x_2 x_3 x_SSTORE_0 0)))
 (let ((?x9128 (used_gas_s x_0 x_1 x_2 x_3 x_SSTORE_0 0)))
 (let (($x8391 (= ?x9128 ?x10388)))
 (let (($x1618 (forall ((w (_ BitVec 256)) )(let ((?x6099 (storage_t x_0 x_1 x_2 x_3 x_SSTORE_0 0 w)))
 (let ((?x5452 (storage_s x_0 x_1 x_2 x_3 x_SSTORE_0 0 w)))
 (= ?x5452 ?x6099))))
 ))
 (let (($x56 (exc_halt_t 0)))
 (let (($x57 (exc_halt_s 0)))
 (let (($x58 (= $x57 $x56)))
 (let (($x2523 (forall ((n (_ BitVec 6)) )(let ((?x8326 (stack_t x_0 x_1 x_2 x_3 x_SSTORE_0 0 n)))
 (let ((?x3991 (stack_s x_0 x_1 x_2 x_3 x_SSTORE_0 0 n)))
 (let (($x5812 (= ?x3991 ?x8326)))
 (let ((?x63 (sc_t 0)))
 (let (($x3382 (bvsle ?x63 n)))
 (or $x3382 $x5812)))))))
 ))
 (let ((?x63 (sc_t 0)))
 (let ((?x72 (sc_s 0)))
 (let (($x73 (= ?x72 ?x63)))
 (let (($x10053 (= $x7854 (or (exc_halt_t 3) (not (bvsle (_ bv0 6) (bvadd (_ bv62 6) (sc_t 3))))))))
 (let (($x9422 (forall ((n (_ BitVec 6)) )(let ((?x11304 (sc_t 3)))
 (let ((?x5238 (bvadd (_ bv62 6) ?x11304)))
 (let (($x7696 (bvsle ?x5238 n)))
 (let ((?x7959 (stack_t x_0 x_1 x_2 x_3 x_SSTORE_0 3 n)))
 (let ((?x3272 (stack_t x_0 x_1 x_2 x_3 x_SSTORE_0 4 n)))
 (or (= ?x3272 ?x7959) $x7696)))))))
 ))
 (let (($x716 (= (stack_t x_0 x_1 x_2 x_3 x_SSTORE_0 3 (bvadd (_ bv62 6) (sc_t 3))) (_ bv0 256))))
 (let ((?x10762 (storage_t x_0 x_1 x_2 x_3 x_SSTORE_0 3 (stack_t x_0 x_1 x_2 x_3 x_SSTORE_0 3 (bvadd (_ bv63 6) (sc_t 3))))))
 (let ((?x1426 (used_gas_t x_0 x_1 x_2 x_3 x_SSTORE_0 3)))
 (let ((?x6188 (+ ?x1426 (ite (= ?x10762 (_ bv0 256)) (ite $x716 5000 20000) (ite $x716 (- 10000) 5000)))))
 (let (($x8641 (forall ((w (_ BitVec 256)) )(let ((?x5190 (storage_t x_0 x_1 x_2 x_3 x_SSTORE_0 3 w)))
 (let (($x10793 (= w (stack_t x_0 x_1 x_2 x_3 x_SSTORE_0 3 (bvadd (_ bv63 6) (sc_t 3))))))
 (let ((?x10986 (ite $x10793 (stack_t x_0 x_1 x_2 x_3 x_SSTORE_0 3 (bvadd (_ bv62 6) (sc_t 3))) ?x5190)))
 (let ((?x9658 (storage_t x_0 x_1 x_2 x_3 x_SSTORE_0 4 w)))
 (= ?x9658 ?x10986))))))
 ))
 (let (($x3614 (exc_halt_t 3)))
 (let (($x1423 (= $x3614 (or (exc_halt_t 2) (not (bvsle (_ bv0 6) (bvadd (_ bv63 6) (sc_t 2))))))))
 (let (($x3974 (forall ((w (_ BitVec 256)) )(let ((?x1955 (storage_t x_0 x_1 x_2 x_3 x_SSTORE_0 2 w)))
 (let ((?x5190 (storage_t x_0 x_1 x_2 x_3 x_SSTORE_0 3 w)))
 (= ?x5190 ?x1955))))
 ))
 (let (($x3818 (forall ((n (_ BitVec 6)) )(let ((?x1739 (stack_t x_0 x_1 x_2 x_3 x_SSTORE_0 2 n)))
 (let ((?x7959 (stack_t x_0 x_1 x_2 x_3 x_SSTORE_0 3 n)))
 (let ((?x6158 (sc_t 2)))
 (let ((?x9406 (bvadd (_ bv63 6) ?x6158)))
 (let (($x7532 (bvsle ?x9406 n)))
 (or $x7532 (= ?x7959 ?x1739))))))))
 ))
 (let (($x1066 (exc_halt_t 2)))
 (let (($x171 (= $x1066 (or (exc_halt_t 1) (not (bvsle (_ bv0 6) (bvadd (_ bv60 6) (sc_t 1))))))))
 (let (($x832 (forall ((w (_ BitVec 256)) )(let ((?x7227 (storage_t x_0 x_1 x_2 x_3 x_SSTORE_0 1 w)))
 (let ((?x1955 (storage_t x_0 x_1 x_2 x_3 x_SSTORE_0 2 w)))
 (= ?x1955 ?x7227))))
 ))
 (let (($x4146 (forall ((n (_ BitVec 6)) )(let ((?x6406 (stack_t x_0 x_1 x_2 x_3 x_SSTORE_0 1 n)))
 (let ((?x1739 (stack_t x_0 x_1 x_2 x_3 x_SSTORE_0 2 n)))
 (let ((?x7154 (sc_t 1)))
 (let ((?x349 (bvadd (_ bv60 6) ?x7154)))
 (let (($x6248 (bvsle ?x349 n)))
 (or $x6248 (= ?x1739 ?x6406))))))))
 ))
 (let ((?x7154 (sc_t 1)))
 (let ((?x6158 (sc_t 2)))
 (let (($x4685 (= ?x6158 ?x7154)))
 (let ((?x573 (used_gas_t x_0 x_1 x_2 x_3 x_SSTORE_0 2)))
 (let ((?x8407 (bvadd (_ bv62 6) ?x7154)))
 (let ((?x4778 (stack_t x_0 x_1 x_2 x_3 x_SSTORE_0 1 ?x8407)))
 (let (($x1179 (= (stack_t x_0 x_1 x_2 x_3 x_SSTORE_0 2 (bvadd (_ bv61 6) ?x6158)) (stack_t x_0 x_1 x_2 x_3 x_SSTORE_0 1 (bvadd (_ bv61 6) ?x7154)))))
 (let ((?x10304 (bvadd (_ bv63 6) ?x7154)))
 (let ((?x11347 (stack_t x_0 x_1 x_2 x_3 x_SSTORE_0 1 ?x10304)))
 (let (($x11414 (= (stack_t x_0 x_1 x_2 x_3 x_SSTORE_0 2 (bvadd (_ bv63 6) ?x6158)) (stack_t x_0 x_1 x_2 x_3 x_SSTORE_0 1 (bvadd (_ bv60 6) ?x7154)))))
 (let (($x8377 (exc_halt_t 1)))
 (let (($x400 (= $x8377 (or $x56 (not (bvsle (_ bv0 6) (bvadd (_ bv62 6) ?x63)))))))
 (let (($x11516 (forall ((w (_ BitVec 256)) )(let ((?x6099 (storage_t x_0 x_1 x_2 x_3 x_SSTORE_0 0 w)))
 (let ((?x7227 (storage_t x_0 x_1 x_2 x_3 x_SSTORE_0 1 w)))
 (= ?x7227 ?x6099))))
 ))
 (let (($x2652 (forall ((n (_ BitVec 6)) )(let ((?x63 (sc_t 0)))
 (let ((?x9360 (bvadd (_ bv62 6) ?x63)))
 (let (($x10154 (bvsle ?x9360 n)))
 (let ((?x8326 (stack_t x_0 x_1 x_2 x_3 x_SSTORE_0 0 n)))
 (let ((?x6406 (stack_t x_0 x_1 x_2 x_3 x_SSTORE_0 1 n)))
 (or (= ?x6406 ?x8326) $x10154)))))))
 ))
 (let (($x8228 (= ?x7154 ?x63)))
 (let (($x4991 (= $x772 (or (exc_halt_s 5) (not (bvsle (_ bv0 6) (bvadd (_ bv63 6) (sc_s 5))))))))
 (let (($x6727 (forall ((w (_ BitVec 256)) )(let ((?x684 (storage_s x_0 x_1 x_2 x_3 x_SSTORE_0 5 w)))
 (let ((?x1641 (storage_s x_0 x_1 x_2 x_3 x_SSTORE_0 6 w)))
 (= ?x1641 ?x684))))
 ))
 (let (($x9332 (forall ((n (_ BitVec 6)) )(let ((?x4319 (sc_s 5)))
 (let ((?x3186 (bvadd (_ bv63 6) ?x4319)))
 (let (($x6465 (bvsle ?x3186 n)))
 (let ((?x9943 (stack_s x_0 x_1 x_2 x_3 x_SSTORE_0 5 n)))
 (let ((?x10020 (stack_s x_0 x_1 x_2 x_3 x_SSTORE_0 6 n)))
 (or (= ?x10020 ?x9943) $x6465)))))))
 ))
 (let (($x2309 (= (used_gas_s x_0 x_1 x_2 x_3 x_SSTORE_0 6) (+ 2 (used_gas_s x_0 x_1 x_2 x_3 x_SSTORE_0 5)))))
 (let (($x11317 (exc_halt_s 5)))
 (let (($x2705 (= $x11317 (or (exc_halt_s 4) (not (bvsle (_ bv0 6) (bvadd (_ bv62 6) (sc_s 4))))))))
 (let (($x7456 (forall ((w (_ BitVec 256)) )(let ((?x151 (storage_s x_0 x_1 x_2 x_3 x_SSTORE_0 4 w)))
 (let ((?x684 (storage_s x_0 x_1 x_2 x_3 x_SSTORE_0 5 w)))
 (= ?x684 ?x151))))
 ))
 (let (($x1348 (forall ((n (_ BitVec 6)) )(let ((?x4305 (sc_s 4)))
 (let ((?x4469 (bvadd (_ bv62 6) ?x4305)))
 (let (($x10204 (bvsle ?x4469 n)))
 (let ((?x4534 (stack_s x_0 x_1 x_2 x_3 x_SSTORE_0 4 n)))
 (let ((?x9943 (stack_s x_0 x_1 x_2 x_3 x_SSTORE_0 5 n)))
 (or (= ?x9943 ?x4534) $x10204)))))))
 ))
 (let ((?x4305 (sc_s 4)))
 (let ((?x4319 (sc_s 5)))
 (let (($x4736 (= ?x4319 ?x4305)))
 (let ((?x6535 (used_gas_s x_0 x_1 x_2 x_3 x_SSTORE_0 5)))
 (let (($x8183 (= (stack_s x_0 x_1 x_2 x_3 x_SSTORE_0 5 (bvadd (_ bv62 6) ?x4319)) (stack_s x_0 x_1 x_2 x_3 x_SSTORE_0 4 (bvadd (_ bv63 6) ?x4305)))))
 (let (($x1787 (= (stack_s x_0 x_1 x_2 x_3 x_SSTORE_0 5 (bvadd (_ bv63 6) ?x4319)) (stack_s x_0 x_1 x_2 x_3 x_SSTORE_0 4 (bvadd (_ bv62 6) ?x4305)))))
 (let (($x7172 (exc_halt_s 4)))
 (let (($x10826 (= $x7172 (or (exc_halt_s 3) (not (bvsle (_ bv0 6) (bvadd (_ bv62 6) (sc_s 3))))))))
 (let (($x5828 (forall ((n (_ BitVec 6)) )(let ((?x275 (sc_s 3)))
 (let ((?x9436 (bvadd (_ bv62 6) ?x275)))
 (let (($x8315 (bvsle ?x9436 n)))
 (let ((?x10834 (stack_s x_0 x_1 x_2 x_3 x_SSTORE_0 3 n)))
 (let ((?x4534 (stack_s x_0 x_1 x_2 x_3 x_SSTORE_0 4 n)))
 (or (= ?x4534 ?x10834) $x8315)))))))
 ))
 (let ((?x275 (sc_s 3)))
 (let ((?x9436 (bvadd (_ bv62 6) ?x275)))
 (let ((?x8884 (stack_s x_0 x_1 x_2 x_3 x_SSTORE_0 3 ?x9436)))
 (let (($x9290 (= ?x8884 (_ bv0 256))))
 (let ((?x9770 (bvadd (_ bv63 6) ?x275)))
 (let ((?x1413 (stack_s x_0 x_1 x_2 x_3 x_SSTORE_0 3 ?x9770)))
 (let ((?x10032 (ite (= (storage_s x_0 x_1 x_2 x_3 x_SSTORE_0 3 ?x1413) (_ bv0 256)) (ite $x9290 5000 20000) (ite $x9290 (- 10000) 5000))))
 (let ((?x9732 (used_gas_s x_0 x_1 x_2 x_3 x_SSTORE_0 3)))
 (let ((?x5647 (used_gas_s x_0 x_1 x_2 x_3 x_SSTORE_0 4)))
 (let (($x4239 (forall ((w (_ BitVec 256)) )(let ((?x11675 (storage_s x_0 x_1 x_2 x_3 x_SSTORE_0 3 w)))
 (let (($x3163 (= w (stack_s x_0 x_1 x_2 x_3 x_SSTORE_0 3 (bvadd (_ bv63 6) (sc_s 3))))))
 (let ((?x2132 (ite $x3163 (stack_s x_0 x_1 x_2 x_3 x_SSTORE_0 3 (bvadd (_ bv62 6) (sc_s 3))) ?x11675)))
 (let ((?x151 (storage_s x_0 x_1 x_2 x_3 x_SSTORE_0 4 w)))
 (= ?x151 ?x2132))))))
 ))
 (let (($x292 (exc_halt_s 3)))
 (let (($x11894 (= $x292 (or (exc_halt_s 2) (not (bvsle (_ bv0 6) (bvadd (_ bv61 6) (sc_s 2))))))))
 (let (($x6863 (forall ((w (_ BitVec 256)) )(let ((?x10865 (storage_s x_0 x_1 x_2 x_3 x_SSTORE_0 2 w)))
 (let ((?x11675 (storage_s x_0 x_1 x_2 x_3 x_SSTORE_0 3 w)))
 (= ?x11675 ?x10865))))
 ))
 (let (($x9270 (forall ((n (_ BitVec 6)) )(let ((?x218 (sc_s 2)))
 (let ((?x3643 (bvadd (_ bv61 6) ?x218)))
 (let (($x10041 (bvsle ?x3643 n)))
 (let ((?x6374 (stack_s x_0 x_1 x_2 x_3 x_SSTORE_0 2 n)))
 (let ((?x10834 (stack_s x_0 x_1 x_2 x_3 x_SSTORE_0 3 n)))
 (or (= ?x10834 ?x6374) $x10041)))))))
 ))
 (let ((?x218 (sc_s 2)))
 (let (($x8325 (= ?x275 ?x218)))
 (let ((?x9556 (bvadd (_ bv63 6) ?x218)))
 (let ((?x6785 (stack_s x_0 x_1 x_2 x_3 x_SSTORE_0 2 ?x9556)))
 (let (($x247 (exc_halt_s 2)))
 (let (($x2101 (= $x247 (or (exc_halt_s 1) (not (bvsle (_ bv0 6) (bvadd (_ bv62 6) (sc_s 1))))))))
 (let (($x4932 (forall ((w (_ BitVec 256)) )(let ((?x1276 (storage_s x_0 x_1 x_2 x_3 x_SSTORE_0 1 w)))
 (let ((?x10865 (storage_s x_0 x_1 x_2 x_3 x_SSTORE_0 2 w)))
 (= ?x10865 ?x1276))))
 ))
 (let (($x715 (forall ((n (_ BitVec 6)) )(let ((?x11941 (stack_s x_0 x_1 x_2 x_3 x_SSTORE_0 1 n)))
 (let ((?x6374 (stack_s x_0 x_1 x_2 x_3 x_SSTORE_0 2 n)))
 (or (= ?x6374 ?x11941) (bvsle (bvadd (_ bv62 6) (sc_s 1)) n)))))
 ))
 (let ((?x154 (sc_s 1)))
 (let (($x5855 (= ?x218 ?x154)))
 (let ((?x7158 (used_gas_s x_0 x_1 x_2 x_3 x_SSTORE_0 2)))
 (let ((?x1154 (bvadd (_ bv63 6) ?x154)))
 (let ((?x11179 (stack_s x_0 x_1 x_2 x_3 x_SSTORE_0 1 ?x1154)))
 (let ((?x6916 (bvadd (_ bv62 6) ?x218)))
 (let ((?x9010 (stack_s x_0 x_1 x_2 x_3 x_SSTORE_0 2 ?x6916)))
 (let (($x189 (exc_halt_s 1)))
 (let (($x939 (= $x189 (or $x57 (not (bvsle (_ bv0 6) (bvadd (_ bv61 6) ?x72)))))))
 (let (($x11006 (forall ((w (_ BitVec 256)) )(let ((?x5452 (storage_s x_0 x_1 x_2 x_3 x_SSTORE_0 0 w)))
 (let ((?x1276 (storage_s x_0 x_1 x_2 x_3 x_SSTORE_0 1 w)))
 (= ?x1276 ?x5452))))
 ))
 (let (($x7746 (forall ((n (_ BitVec 6)) )(let ((?x72 (sc_s 0)))
 (let ((?x8472 (bvadd (_ bv61 6) ?x72)))
 (let (($x7952 (bvsle ?x8472 n)))
 (let ((?x3991 (stack_s x_0 x_1 x_2 x_3 x_SSTORE_0 0 n)))
 (let ((?x11941 (stack_s x_0 x_1 x_2 x_3 x_SSTORE_0 1 n)))
 (or (= ?x11941 ?x3991) $x7952)))))))
 ))
 (let (($x9699 (= ?x154 ?x72)))
 (let ((?x1643 (bvadd (_ bv62 6) ?x154)))
 (let ((?x2472 (stack_s x_0 x_1 x_2 x_3 x_SSTORE_0 1 ?x1643)))
 (let (($x910 (= (stack_s x_0 x_1 x_2 x_3 x_SSTORE_0 1 (bvadd (_ bv61 6) ?x154)) (stack_s x_0 x_1 x_2 x_3 x_SSTORE_0 0 (bvadd (_ bv63 6) ?x72)))))
 (let (($x3377 (forall ((w (_ BitVec 256)) )(let (($x3163 (= w (stack_s x_0 x_1 x_2 x_3 x_SSTORE_0 3 (bvadd (_ bv63 6) (sc_s 3))))))
 (let ((?x5452 (storage_s x_0 x_1 x_2 x_3 x_SSTORE_0 0 w)))
 (= ?x5452 (ite $x3163 x_SSTORE_0 (_ bv0 256))))))
 ))
 (let (($x559 (= ?x9128 0)))
 (let (($x9480 (not $x57)))
 (let (($x3544 (= (stack_s x_0 x_1 x_2 x_3 x_SSTORE_0 0 (_ bv3 6)) x_3)))
 (let (($x10639 (= (stack_s x_0 x_1 x_2 x_3 x_SSTORE_0 0 (_ bv2 6)) x_2)))
 (let (($x8984 (= (stack_s x_0 x_1 x_2 x_3 x_SSTORE_0 0 (_ bv1 6)) x_1)))
 (let (($x2440 (= (stack_s x_0 x_1 x_2 x_3 x_SSTORE_0 0 (_ bv0 6)) x_0)))
 (let (($x11199 (= ?x72 (_ bv4 6))))
 (and $x11199 $x2440 $x8984 $x10639 $x3544 $x9480 $x559 $x3377 (= ?x11179 (stack_s x_0 x_1 x_2 x_3 x_SSTORE_0 0 (bvadd (_ bv61 6) ?x72))) $x910 (= ?x2472 (stack_s x_0 x_1 x_2 x_3 x_SSTORE_0 0 (bvadd (_ bv62 6) ?x72))) (= (used_gas_s x_0 x_1 x_2 x_3 x_SSTORE_0 1) (+ 3 ?x9128)) $x9699 $x7746 $x11006 $x939 (= ?x6785 ?x2472) (= ?x9010 ?x11179) (= ?x7158 (+ 3 (used_gas_s x_0 x_1 x_2 x_3 x_SSTORE_0 1))) $x5855 $x715 $x4932 $x2101 (= ?x1413 (stack_s x_0 x_1 x_2 x_3 x_SSTORE_0 2 (bvadd (_ bv61 6) ?x218))) (= (stack_s x_0 x_1 x_2 x_3 x_SSTORE_0 3 (bvadd (_ bv61 6) ?x275)) ?x6785) (= ?x8884 ?x9010) (= ?x9732 (+ 3 ?x7158)) $x8325 $x9270 $x6863 $x11894 $x4239 (= ?x5647 (+ ?x9732 ?x10032)) (= ?x4305 ?x9436) $x5828 $x10826 $x1787 $x8183 (= ?x6535 (+ 3 ?x5647)) $x4736 $x1348 $x7456 $x2705 $x2309 (= ?x926 (bvadd (_ bv63 6) ?x4319)) $x9332 $x6727 $x4991 (= ?x11347 (stack_t x_0 x_1 x_2 x_3 x_SSTORE_0 0 (bvadd (_ bv62 6) ?x63))) (= ?x4778 (stack_t x_0 x_1 x_2 x_3 x_SSTORE_0 0 (bvadd (_ bv63 6) ?x63))) (= (used_gas_t x_0 x_1 x_2 x_3 x_SSTORE_0 1) (+ 3 ?x10388)) $x8228 $x2652 $x11516 $x400 $x11414 (= (stack_t x_0 x_1 x_2 x_3 x_SSTORE_0 2 (bvadd (_ bv60 6) ?x6158)) ?x11347) $x1179 (= (stack_t x_0 x_1 x_2 x_3 x_SSTORE_0 2 (bvadd (_ bv62 6) ?x6158)) ?x4778) (= ?x573 (+ 3 (used_gas_t x_0 x_1 x_2 x_3 x_SSTORE_0 1))) $x4685 $x4146 $x832 $x171 (= ?x1426 (+ 2 ?x573)) (= (sc_t 3) (bvadd (_ bv63 6) ?x6158)) $x3818 $x3974 $x1423 $x8641 (= (used_gas_t x_0 x_1 x_2 x_3 x_SSTORE_0 4) ?x6188) (= ?x4818 (bvadd (_ bv62 6) (sc_t 3))) $x9422 $x10053 $x73 $x2523 $x58 $x1618 $x8391 (not (and $x7899 $x2146 $x4404 $x1312)))))))))))))))))))))))))))))))))))))))))))))))))))))))))))))))))))))))))))))))))))))))))))))))))))))))))))))))))))
 )
(check-sat)
(get-proof)
